(set-info :origin "SVCOMP13 benchmarks generated by Arie Gurfinkel")
(set-info :status unsat)
(set-logic HORN)
(declare-fun cp-rel-entry () Bool)
(declare-fun cp-rel-bb1.i.i
             (Bool Bool Bool Bool Bool Bool Real Real Real Real Real)
             Bool)
(declare-fun cp-rel-bb2.i.i150.i.i () Bool)
(assert |cp-rel-entry|)
(assert (forall ((?A Bool) (?B Bool) (?C Bool) (?D Bool) (?E Bool) (?F Bool) (?G Real) (?H Real) (?I Real) (?J Real) (?K Real) (?L Bool) (?M Real) (?N Real) (?O Real) (?P Real) (?Q Real) (?R Real) )(let (($x124523 (|cp-rel-bb1.i.i| ?A ?B ?C ?D ?E ?F ?G ?H ?I ?J ?K)))
(let (($x101657 (and |cp-rel-entry| (= ?E (= ?Q 0.0)) (= ?D (not (= ?P 0.0))) (= ?C (= ?O 0.0)) (= ?B (= ?N 0.0)) (= ?A (= ?M 0.0)) (>= ?K 1.0) (<= ?K 1.0) (>= ?J 0.0) (<= ?J 0.0) (>= ?I 0.0) (<= ?I 0.0) (>= ?H 1.0) (<= ?H 1.0) (>= ?G 0.0) (<= ?G 0.0) (= ?L true) (= ?F (= ?R 0.0)))))
(=> $x101657 $x124523))))
)
(assert (forall ((?A Bool) (?B Bool) (?C Bool) (?D Bool) (?E Bool) (?F Bool) (?G Real) (?H Real) (?I Real) (?J Real) (?K Real) (?L Real) (?M Real) (?N Real) (?O Real) (?P Real) (?Q Bool) (?R Bool) (?S Bool) (?T Bool) (?U Bool) (?V Bool) (?W Real) (?X Real) (?Y Bool) (?Z Bool) (?A1 Bool) (?B1 Bool) (?C1 Bool) (?D1 Bool) (?E1 Real) (?F1 Real) (?G1 Bool) (?H1 Bool) (?I1 Bool) (?J1 Bool) (?K1 Bool) (?L1 Bool) (?M1 Bool) (?N1 Bool) (?O1 Bool) (?P1 Bool) (?Q1 Bool) (?R1 Real) (?S1 Bool) (?T1 Bool) (?U1 Bool) (?V1 Bool) (?W1 Bool) (?X1 Bool) (?Y1 Bool) (?Z1 Real) (?A2 Real) (?B2 Bool) (?C2 Bool) (?D2 Bool) (?E2 Bool) (?F2 Bool) (?G2 Bool) (?H2 Bool) (?I2 Bool) (?J2 Bool) (?K2 Bool) (?L2 Bool) (?M2 Bool) (?N2 Bool) (?O2 Bool) (?P2 Bool) (?Q2 Bool) (?R2 Bool) (?S2 Bool) (?T2 Bool) (?U2 Bool) (?V2 Bool) (?W2 Bool) (?X2 Bool) (?Y2 Bool) (?Z2 Bool) (?A3 Bool) (?B3 Bool) (?C3 Bool) (?D3 Bool) (?E3 Bool) (?F3 Bool) (?G3 Bool) (?H3 Bool) (?I3 Bool) (?J3 Bool) (?K3 Bool) (?L3 Bool) (?M3 Bool) (?N3 Bool) (?O3 Bool) (?P3 Bool) (?Q3 Bool) (?R3 Bool) (?S3 Bool) (?T3 Bool) (?U3 Bool) (?V3 Real) (?W3 Real) (?X3 Real) (?Y3 Real) (?Z3 Bool) (?A4 Real) (?B4 Bool) (?C4 Real) (?D4 Bool) (?E4 Real) (?F4 Bool) (?G4 Bool) (?H4 Bool) (?I4 Real) (?J4 Bool) (?K4 Real) (?L4 Bool) (?M4 Real) (?N4 Bool) (?O4 Bool) (?P4 Bool) (?Q4 Bool) (?R4 Real) (?S4 Bool) (?T4 Bool) (?U4 Bool) (?V4 Bool) (?W4 Bool) (?X4 Bool) (?Y4 Real) (?Z4 Bool) (?A5 Real) (?B5 Real) (?C5 Bool) (?D5 Real) (?E5 Bool) (?F5 Real) (?G5 Bool) (?H5 Real) (?I5 Bool) (?J5 Bool) (?K5 Bool) (?L5 Bool) (?M5 Bool) (?N5 Bool) (?O5 Bool) (?P5 Bool) (?Q5 Bool) (?R5 Bool) (?S5 Bool) (?T5 Bool) (?U5 Bool) (?V5 Bool) (?W5 Bool) (?X5 Bool) (?Y5 Bool) (?Z5 Bool) )(let (($x413838 (|cp-rel-bb1.i.i| ?A ?B ?C ?D ?E ?F ?L ?M ?N ?O ?P)))
(let (($x129787 (or (not ?Q) (and ?R ?S (not ?T)))))
(let (($x487873 (or (not ?Q) ?S)))
(let (($x618816 (not ?U)))
(let (($x863062 (or $x618816 (and ?Q ?V (<= ?W ?X) (>= ?W ?X)) (and ?R ?Y ?T (<= ?W ?K) (>= ?W ?K)))))
(let (($x626609 (or $x618816 (and ?V (not ?Y)) (and ?Y (not ?V)))))
(let (($x573070 (or (not ?Z) (and ?U ?A1 (not ?B1)))))
(let (($x27918 (or (not ?Z) ?A1)))
(let (($x377717 (not ?C1)))
(let (($x647211 (or $x377717 (and ?Z ?D1 (<= ?E1 ?F1) (>= ?E1 ?F1)) (and ?U ?G1 ?B1 (<= ?E1 ?J) (>= ?E1 ?J)))))
(let (($x452504 (or $x377717 (and ?D1 (not ?G1)) (and ?G1 (not ?D1)))))
(let (($x864970 (or (not ?H1) (and ?C1 ?I1 ?J1))))
(let (($x393068 (or (not ?H1) ?I1)))
(let (($x212497 (or (not ?K1) (and ?C1 ?L1 (not ?J1)))))
(let (($x571595 (or (not ?K1) ?L1)))
(let (($x229036 (not ?M1)))
(let (($x919237 (or $x229036 ?N1)))
(let (($x188958 (not ?O1)))
(let (($x317853 (or $x188958 (and ?H1 ?P1 ?Q1 (<= ?R1 ?H) (>= ?R1 ?H)) (and ?M1 ?S1 (<= ?R1 1.0) (>= ?R1 1.0)) (and ?K1 ?T1 ?F (<= ?R1 ?H) (>= ?R1 ?H)))))
(let (($x462554 (or $x188958 (and ?P1 (not ?S1) (not ?T1)) (and ?S1 (not ?P1) (not ?T1)) (and ?T1 (not ?P1) (not ?S1)))))
(let (($x796804 (or (not ?U1) (and ?O1 ?V1 (not ?W1)))))
(let (($x220115 (or (not ?U1) ?V1)))
(let (($x442942 (or (not ?X1) (and ?U1 ?Y1 (<= ?Z1 ?A2) (>= ?Z1 ?A2)) (and ?O1 ?B2 ?W1 (<= ?Z1 ?W) (>= ?Z1 ?W)))))
(let (($x102567 (or (not ?X1) (and ?Y1 (not ?B2)) (and ?B2 (not ?Y1)))))
(let (($x478352 (or (not ?C2) (and ?X1 ?D2 (not ?E2)))))
(let (($x30142 (or (not ?C2) ?D2)))
(let (($x757444 (not ?F2)))
(let (($x865456 (or $x757444 ?G2)))
(let (($x622753 (not ?H2)))
(let (($x279103 (or $x622753 ?I2)))
(let (($x589270 (not ?J2)))
(let (($x815768 (or $x589270 ?K2)))
(let (($x629912 (not ?L2)))
(let (($x38142 (or $x629912 ?M2)))
(let (($x293443 (or (not ?N2) (and ?H2 ?O2 ?W1))))
(let (($x842821 (or (not ?N2) ?O2)))
(let (($x790834 (or (not ?P2) (and ?H2 ?Q2 (not ?W1)))))
(let (($x148428 (or (not ?P2) ?Q2)))
(let (($x113697 (or (not ?R2) (and ?J2 ?S2 (not ?T2)))))
(let (($x422023 (or (not ?R2) ?S2)))
(let (($x115687 (or (not ?U2) (and ?L2 ?V2 ?W1))))
(let (($x540248 (or (not ?U2) ?V2)))
(let (($x594114 (or (not ?W2) (and ?L2 ?X2 (not ?W1)))))
(let (($x850487 (or (not ?W2) ?X2)))
(let (($x422194 (not ?Y2)))
(let (($x186580 (or $x422194 ?Z2)))
(let (($x501976 (not ?A3)))
(let (($x100216 (or $x501976 ?B3)))
(let (($x789186 (or (not ?C3) (and ?P2 ?D3 (not ?E3)))))
(let (($x512274 (or (not ?C3) ?D3)))
(let (($x285406 (or (not ?F3) (and ?U2 ?G3 (not ?H3)))))
(let (($x236693 (or (not ?F3) ?G3)))
(let (($x549177 (or (not ?I3) (and ?W2 ?J3 ?K3))))
(let (($x316438 (or (not ?I3) ?J3)))
(let (($x268213 (or (not ?L3) (and ?Y2 ?M3 (not ?N3)))))
(let (($x280350 (or (not ?L3) ?M3)))
(let (($x909377 (or (not ?O3) (and ?A3 ?P3 (not ?N3)))))
(let (($x156436 (or (not ?O3) ?P3)))
(let (($x518853 (or (not ?Q3) (and ?C3 ?R3 ?S3))))
(let (($x362895 (or (not ?Q3) ?R3)))
(let (($x394794 (>= ?X3 0.0)))
(let (($x272586 (<= ?X3 0.0)))
(let (($x277876 (and ?H1 ?T4 (not ?Q1) (<= ?V3 0.0) (>= ?V3 0.0) (<= ?W3 ?W) (>= ?W3 ?W) $x272586 $x394794)))
(let (($x359325 (>= ?X3 ?I)))
(let (($x103121 (<= ?X3 ?I)))
(let (($x566874 (>= ?W3 ?Z1)))
(let (($x403656 (<= ?W3 ?Z1)))
(let (($x214905 (>= ?V3 ?R1)))
(let (($x267647 (<= ?V3 ?R1)))
(let (($x166420 (and ?P2 ?Q4 ?E3 $x267647 $x214905 $x403656 $x566874 (<= ?X3 ?R4) (>= ?X3 ?R4))))
(let (($x923190 (and ?A3 ?N4 ?N3 $x267647 $x214905 $x403656 $x566874 (<= ?X3 ?K4) (>= ?X3 ?K4))))
(let (($x59250 (and ?Y2 ?J4 ?N3 $x267647 $x214905 $x403656 $x566874 (<= ?X3 ?K4) (>= ?X3 ?K4))))
(let (($x295307 (and ?U2 ?D4 ?H3 $x267647 $x214905 $x403656 $x566874 (<= ?X3 ?E4) (>= ?X3 ?E4))))
(let (($x298787 (and ?J2 ?Z3 ?T2 $x267647 $x214905 $x403656 $x566874 (<= ?X3 ?A4) (>= ?X3 ?A4))))
(let (($x165161 (not ?T3)))
(let (($x163597 (or $x165161 (and ?R2 ?U3 $x267647 $x214905 $x403656 $x566874 (<= ?X3 ?Y3) (>= ?X3 ?Y3)) $x298787 (and ?F3 ?B4 $x267647 $x214905 $x403656 $x566874 (<= ?X3 ?C4) (>= ?X3 ?C4)) $x295307 (and ?I3 ?F4 $x267647 $x214905 $x403656 $x566874 $x103121 $x359325) (and ?W2 ?G4 (not ?K3) $x267647 $x214905 $x403656 $x566874 $x272586 $x394794) (and ?L3 ?H4 $x267647 $x214905 $x403656 $x566874 (<= ?X3 ?I4) (>= ?X3 ?I4)) $x59250 (and ?O3 ?L4 $x267647 $x214905 $x403656 $x566874 (<= ?X3 ?M4) (>= ?X3 ?M4)) $x923190 (and ?Q3 ?O4 $x267647 $x214905 $x403656 $x566874 $x103121 $x359325) (and ?C3 ?P4 (not ?S3) $x267647 $x214905 $x403656 $x566874 $x272586 $x394794) $x166420 (and ?X1 ?S4 ?E2 $x267647 $x214905 $x403656 $x566874 $x103121 $x359325) $x277876)))
(let (($x104903 (not ?S4)))
(let (($x551085 (not ?Q4)))
(let (($x871078 (not ?P4)))
(let (($x858230 (not ?O4)))
(let (($x626803 (not ?N4)))
(let (($x307879 (not ?L4)))
(let (($x149989 (not ?J4)))
(let (($x892704 (not ?H4)))
(let (($x152052 (not ?G4)))
(let (($x212891 (not ?F4)))
(let (($x875441 (not ?D4)))
(let (($x451906 (not ?B4)))
(let (($x286792 (not ?Z3)))
(let (($x197986 (not ?U3)))
(let (($x119736 (and ?T4 $x197986 $x286792 $x451906 $x875441 $x212891 $x152052 $x892704 $x149989 $x307879 $x626803 $x858230 $x871078 $x551085 $x104903)))
(let (($x462077 (not ?T4)))
(let (($x312944 (and ?S4 $x197986 $x286792 $x451906 $x875441 $x212891 $x152052 $x892704 $x149989 $x307879 $x626803 $x858230 $x871078 $x551085 $x462077)))
(let (($x152650 (and ?Q4 $x197986 $x286792 $x451906 $x875441 $x212891 $x152052 $x892704 $x149989 $x307879 $x626803 $x858230 $x871078 $x104903 $x462077)))
(let (($x250822 (and ?P4 $x197986 $x286792 $x451906 $x875441 $x212891 $x152052 $x892704 $x149989 $x307879 $x626803 $x858230 $x551085 $x104903 $x462077)))
(let (($x446848 (and ?O4 $x197986 $x286792 $x451906 $x875441 $x212891 $x152052 $x892704 $x149989 $x307879 $x626803 $x871078 $x551085 $x104903 $x462077)))
(let (($x441254 (and ?N4 $x197986 $x286792 $x451906 $x875441 $x212891 $x152052 $x892704 $x149989 $x307879 $x858230 $x871078 $x551085 $x104903 $x462077)))
(let (($x78638 (and ?L4 $x197986 $x286792 $x451906 $x875441 $x212891 $x152052 $x892704 $x149989 $x626803 $x858230 $x871078 $x551085 $x104903 $x462077)))
(let (($x577754 (and ?J4 $x197986 $x286792 $x451906 $x875441 $x212891 $x152052 $x892704 $x307879 $x626803 $x858230 $x871078 $x551085 $x104903 $x462077)))
(let (($x368647 (and ?H4 $x197986 $x286792 $x451906 $x875441 $x212891 $x152052 $x149989 $x307879 $x626803 $x858230 $x871078 $x551085 $x104903 $x462077)))
(let (($x549643 (and ?G4 $x197986 $x286792 $x451906 $x875441 $x212891 $x892704 $x149989 $x307879 $x626803 $x858230 $x871078 $x551085 $x104903 $x462077)))
(let (($x381226 (and ?F4 $x197986 $x286792 $x451906 $x875441 $x152052 $x892704 $x149989 $x307879 $x626803 $x858230 $x871078 $x551085 $x104903 $x462077)))
(let (($x606854 (and ?D4 $x197986 $x286792 $x451906 $x212891 $x152052 $x892704 $x149989 $x307879 $x626803 $x858230 $x871078 $x551085 $x104903 $x462077)))
(let (($x842432 (and ?B4 $x197986 $x286792 $x875441 $x212891 $x152052 $x892704 $x149989 $x307879 $x626803 $x858230 $x871078 $x551085 $x104903 $x462077)))
(let (($x151164 (and ?Z3 $x197986 $x451906 $x875441 $x212891 $x152052 $x892704 $x149989 $x307879 $x626803 $x858230 $x871078 $x551085 $x104903 $x462077)))
(let (($x227626 (and ?U3 $x286792 $x451906 $x875441 $x212891 $x152052 $x892704 $x149989 $x307879 $x626803 $x858230 $x871078 $x551085 $x104903 $x462077)))
(let (($x884832 (or $x165161 $x227626 $x151164 $x842432 $x606854 $x381226 $x549643 $x368647 $x577754 $x78638 $x441254 $x446848 $x250822 $x152650 $x312944 $x119736)))
(let (($x811286 (or (not ?U4) (and ?T3 ?V4 (not ?W4)))))
(let (($x518018 (or (not ?U4) ?V4)))
(let (($x472722 (and ?T3 ?W4 (<= ?L 0.0) (>= ?L 0.0) (<= ?M ?V3) (>= ?M ?V3) (<= ?N ?X3) (>= ?N ?X3) (<= ?O ?E1) (>= ?O ?E1) (<= ?P ?W3) (>= ?P ?W3))))
(let (($x4014 (and ?U4 ?X4 (<= ?L 1.0) (>= ?L 1.0) (<= ?M ?V3) (>= ?M ?V3) (<= ?N ?X3) (>= ?N ?X3) (<= ?O ?E1) (>= ?O ?E1) (<= ?P ?W3) (>= ?P ?W3))))
(let (($x523329 (= ?T (= ?Y4 0.0))))
(let (($x414526 (= ?A5 (ite ?Z4 1.0 0.0))))
(let (($x647540 (= ?B1 (= ?B5 0.0))))
(let (($x518025 (= ?F1 (ite ?C5 1.0 0.0))))
(let (($x214027 (= ?J1 (= ?D5 0.0))))
(let (($x19551 (= ?E5 (= ?F5 0.0))))
(let (($x644574 (= ?G5 (not (<= ?W 0.0)))))
(let (($x538275 (= ?H5 (+ (~ 1.0) ?W))))
(let (($x327920 (= ?A2 (ite ?G5 ?H5 ?W))))
(let (($x81717 (= ?E2 (= ?R1 0.0))))
(let (($x298873 (not (<= ?Z1 1.0))))
(let (($x128216 (= ?I5 $x298873)))
(let (($x166180 (= ?K5 (and ?J5 ?I5))))
(let (($x168221 (= ?L5 (not ?K5))))
(let (($x95406 (= ?M5 $x298873)))
(let (($x553819 (= ?O5 (not ?N5))))
(let (($x512639 (= ?E1 0.0)))
(let (($x151147 (= ?P5 $x512639)))
(let (($x288993 (= ?Q5 (not ?P5))))
(let (($x861600 (= ?R5 $x512639)))
(let (($x383862 (= ?S5 $x298873)))
(let (($x85266 (= ?U5 (not ?T5))))
(let (($x396872 (= ?K3 (= ?Z1 0.0))))
(let (($x334042 (= ?S3 (= ?Z1 0.0))))
(let (($x546912 (= ?V5 $x512639)))
(let (($x306929 (= ?W5 $x512639)))
(let (($x115136 (= ?X5 $x512639)))
(let (($x269720 (= ?Y5 $x512639)))
(let (($x849896 (= ?Z5 (= ?X3 0.0))))
(let (($x868497 (= ?W4 (or ?Z5 ?Y5))))
(let (($x258642 (|cp-rel-bb1.i.i| ?A ?B ?C ?D ?E ?F ?G ?H ?I ?J ?K)))
(let (($x246929 (and $x258642 $x868497 $x849896 $x269720 (= ?M4 (ite ?X5 1.0 ?I)) $x115136 (= ?I4 (ite ?W5 1.0 ?I)) $x306929 (= ?C4 (ite ?V5 1.0 ?I)) $x546912 $x334042 $x396872 (= ?E4 (ite ?T5 1.0 ?I)) (= ?H3 (or ?E ?U5)) $x85266 (= ?T5 (and ?D ?S5)) $x383862 (= ?Y3 (ite ?R5 1.0 ?I)) $x861600 (= ?R4 (ite ?P5 ?I 0.0)) (= ?E3 (or ?C ?Q5)) $x288993 $x151147 (= ?K4 (ite ?N5 1.0 ?I)) (= ?N3 (or ?E ?O5)) $x553819 (= ?N5 (and ?D ?M5)) $x95406 (= ?A4 (ite ?K5 1.0 ?I)) (= ?T2 (or ?E ?L5)) $x168221 $x166180 (= ?J5 (and ?W1 ?D)) $x128216 $x81717 $x327920 $x538275 $x644574 (= ?W1 (= ?I 0.0)) (= ?Q1 (or ?E5 ?A)) $x19551 $x214027 $x518025 (= ?C5 (= ?J 0.0)) $x647540 (= ?X (+ ?A5 ?K)) $x414526 (= ?Z4 (not (<= 2.0 ?K))) $x523329 (or $x4014 $x472722) $x518018 $x811286 $x884832 $x163597 $x362895 $x518853 $x156436 $x909377 $x280350 $x268213 $x316438 $x549177 $x236693 $x285406 $x512274 $x789186 $x100216 (or $x501976 (and ?N2 ?B3 (not ?C))) $x186580 (or $x422194 (and ?N2 ?Z2 ?C)) $x850487 $x594114 $x540248 $x115687 $x422023 $x113697 $x148428 $x790834 $x842821 $x293443 $x38142 (or $x629912 (and ?F2 ?M2 (not ?C))) $x815768 (or $x589270 (and ?F2 ?K2 ?C)) $x279103 (or $x622753 (and ?C2 ?I2 (not ?B))) $x865456 (or $x757444 (and ?C2 ?G2 ?B)) $x30142 $x478352 $x102567 $x442942 $x220115 $x796804 $x462554 $x317853 $x919237 (or $x229036 (and ?K1 ?N1 (not ?F))) $x571595 $x212497 $x393068 $x864970 $x452504 $x647211 $x27918 $x573070 $x626609 $x863062 $x487873 $x129787 (= ?X4 (= ?G 0.0)))))
(=> $x246929 $x413838)))))))))))))))))))))))))))))))))))))))))))))))))))))))))))))))))))))))))))))))))))))))))))))))))))))))))))))))))))))))))))))))))))))))))))))))))
)
(assert (forall ((?A Bool) (?B Bool) (?C Bool) (?D Bool) (?E Bool) (?F Bool) (?G Real) (?H Real) (?I Real) (?J Real) (?K Real) (?L Bool) (?M Bool) (?N Bool) (?O Bool) (?P Bool) (?Q Bool) (?R Real) (?S Real) (?T Bool) (?U Bool) (?V Bool) (?W Bool) (?X Bool) (?Y Bool) (?Z Real) (?A1 Real) (?B1 Bool) (?C1 Bool) (?D1 Bool) (?E1 Bool) (?F1 Bool) (?G1 Bool) (?H1 Bool) (?I1 Bool) (?J1 Bool) (?K1 Bool) (?L1 Bool) (?M1 Real) (?N1 Bool) (?O1 Bool) (?P1 Bool) (?Q1 Bool) (?R1 Bool) (?S1 Bool) (?T1 Bool) (?U1 Real) (?V1 Real) (?W1 Bool) (?X1 Bool) (?Y1 Bool) (?Z1 Bool) (?A2 Bool) (?B2 Bool) (?C2 Bool) (?D2 Bool) (?E2 Bool) (?F2 Bool) (?G2 Bool) (?H2 Bool) (?I2 Bool) (?J2 Bool) (?K2 Bool) (?L2 Bool) (?M2 Bool) (?N2 Bool) (?O2 Bool) (?P2 Bool) (?Q2 Bool) (?R2 Bool) (?S2 Bool) (?T2 Bool) (?U2 Bool) (?V2 Bool) (?W2 Bool) (?X2 Bool) (?Y2 Bool) (?Z2 Bool) (?A3 Bool) (?B3 Bool) (?C3 Bool) (?D3 Bool) (?E3 Bool) (?F3 Bool) (?G3 Bool) (?H3 Bool) (?I3 Bool) (?J3 Bool) (?K3 Bool) (?L3 Bool) (?M3 Bool) (?N3 Bool) (?O3 Bool) (?P3 Bool) (?Q3 Real) (?R3 Real) (?S3 Real) (?T3 Real) (?U3 Bool) (?V3 Real) (?W3 Bool) (?X3 Real) (?Y3 Bool) (?Z3 Real) (?A4 Bool) (?B4 Bool) (?C4 Bool) (?D4 Real) (?E4 Bool) (?F4 Real) (?G4 Bool) (?H4 Real) (?I4 Bool) (?J4 Bool) (?K4 Bool) (?L4 Bool) (?M4 Real) (?N4 Bool) (?O4 Bool) (?P4 Bool) (?Q4 Bool) (?R4 Bool) (?S4 Bool) (?T4 Real) (?U4 Bool) (?V4 Real) (?W4 Real) (?X4 Bool) (?Y4 Real) (?Z4 Bool) (?A5 Real) (?B5 Bool) (?C5 Real) (?D5 Bool) (?E5 Bool) (?F5 Bool) (?G5 Bool) (?H5 Bool) (?I5 Bool) (?J5 Bool) (?K5 Bool) (?L5 Bool) (?M5 Bool) (?N5 Bool) (?O5 Bool) (?P5 Bool) (?Q5 Bool) (?R5 Bool) (?S5 Bool) (?T5 Bool) (?U5 Bool) )(let (($x129787 (or (not ?L) (and ?M ?N (not ?O)))))
(let (($x487873 (or (not ?L) ?N)))
(let (($x618816 (not ?P)))
(let (($x590032 (or $x618816 (and ?L ?Q (<= ?R ?S) (>= ?R ?S)) (and ?M ?T ?O (<= ?R ?K) (>= ?R ?K)))))
(let (($x626609 (or $x618816 (and ?Q (not ?T)) (and ?T (not ?Q)))))
(let (($x573070 (or (not ?U) (and ?P ?V (not ?W)))))
(let (($x27918 (or (not ?U) ?V)))
(let (($x377717 (not ?X)))
(let (($x477985 (or $x377717 (and ?U ?Y (<= ?Z ?A1) (>= ?Z ?A1)) (and ?P ?B1 ?W (<= ?Z ?J) (>= ?Z ?J)))))
(let (($x452504 (or $x377717 (and ?Y (not ?B1)) (and ?B1 (not ?Y)))))
(let (($x864970 (or (not ?C1) (and ?X ?D1 ?E1))))
(let (($x393068 (or (not ?C1) ?D1)))
(let (($x212497 (or (not ?F1) (and ?X ?G1 (not ?E1)))))
(let (($x571595 (or (not ?F1) ?G1)))
(let (($x229036 (not ?H1)))
(let (($x919237 (or $x229036 ?I1)))
(let (($x188958 (not ?J1)))
(let (($x373748 (or $x188958 (and ?C1 ?K1 ?L1 (<= ?M1 ?H) (>= ?M1 ?H)) (and ?H1 ?N1 (<= ?M1 1.0) (>= ?M1 1.0)) (and ?F1 ?O1 ?F (<= ?M1 ?H) (>= ?M1 ?H)))))
(let (($x462554 (or $x188958 (and ?K1 (not ?N1) (not ?O1)) (and ?N1 (not ?K1) (not ?O1)) (and ?O1 (not ?K1) (not ?N1)))))
(let (($x796804 (or (not ?P1) (and ?J1 ?Q1 (not ?R1)))))
(let (($x220115 (or (not ?P1) ?Q1)))
(let (($x442942 (or (not ?S1) (and ?P1 ?T1 (<= ?U1 ?V1) (>= ?U1 ?V1)) (and ?J1 ?W1 ?R1 (<= ?U1 ?R) (>= ?U1 ?R)))))
(let (($x102567 (or (not ?S1) (and ?T1 (not ?W1)) (and ?W1 (not ?T1)))))
(let (($x478352 (or (not ?X1) (and ?S1 ?Y1 (not ?Z1)))))
(let (($x30142 (or (not ?X1) ?Y1)))
(let (($x757444 (not ?A2)))
(let (($x865456 (or $x757444 ?B2)))
(let (($x622753 (not ?C2)))
(let (($x279103 (or $x622753 ?D2)))
(let (($x589270 (not ?E2)))
(let (($x815768 (or $x589270 ?F2)))
(let (($x629912 (not ?G2)))
(let (($x38142 (or $x629912 ?H2)))
(let (($x293443 (or (not ?I2) (and ?C2 ?J2 ?R1))))
(let (($x842821 (or (not ?I2) ?J2)))
(let (($x790834 (or (not ?K2) (and ?C2 ?L2 (not ?R1)))))
(let (($x148428 (or (not ?K2) ?L2)))
(let (($x113697 (or (not ?M2) (and ?E2 ?N2 (not ?O2)))))
(let (($x422023 (or (not ?M2) ?N2)))
(let (($x115687 (or (not ?P2) (and ?G2 ?Q2 ?R1))))
(let (($x540248 (or (not ?P2) ?Q2)))
(let (($x594114 (or (not ?R2) (and ?G2 ?S2 (not ?R1)))))
(let (($x850487 (or (not ?R2) ?S2)))
(let (($x422194 (not ?T2)))
(let (($x186580 (or $x422194 ?U2)))
(let (($x501976 (not ?V2)))
(let (($x100216 (or $x501976 ?W2)))
(let (($x789186 (or (not ?X2) (and ?K2 ?Y2 (not ?Z2)))))
(let (($x512274 (or (not ?X2) ?Y2)))
(let (($x285406 (or (not ?A3) (and ?P2 ?B3 (not ?C3)))))
(let (($x236693 (or (not ?A3) ?B3)))
(let (($x549177 (or (not ?D3) (and ?R2 ?E3 ?F3))))
(let (($x316438 (or (not ?D3) ?E3)))
(let (($x268213 (or (not ?G3) (and ?T2 ?H3 (not ?I3)))))
(let (($x280350 (or (not ?G3) ?H3)))
(let (($x909377 (or (not ?J3) (and ?V2 ?K3 (not ?I3)))))
(let (($x156436 (or (not ?J3) ?K3)))
(let (($x518853 (or (not ?L3) (and ?X2 ?M3 ?N3))))
(let (($x362895 (or (not ?L3) ?M3)))
(let (($x394794 (>= ?S3 0.0)))
(let (($x272586 (<= ?S3 0.0)))
(let (($x277876 (and ?C1 ?O4 (not ?L1) (<= ?Q3 0.0) (>= ?Q3 0.0) (<= ?R3 ?R) (>= ?R3 ?R) $x272586 $x394794)))
(let (($x420758 (>= ?S3 ?I)))
(let (($x623034 (<= ?S3 ?I)))
(let (($x566874 (>= ?R3 ?U1)))
(let (($x403656 (<= ?R3 ?U1)))
(let (($x214905 (>= ?Q3 ?M1)))
(let (($x267647 (<= ?Q3 ?M1)))
(let (($x166420 (and ?K2 ?L4 ?Z2 $x267647 $x214905 $x403656 $x566874 (<= ?S3 ?M4) (>= ?S3 ?M4))))
(let (($x923190 (and ?V2 ?I4 ?I3 $x267647 $x214905 $x403656 $x566874 (<= ?S3 ?F4) (>= ?S3 ?F4))))
(let (($x59250 (and ?T2 ?E4 ?I3 $x267647 $x214905 $x403656 $x566874 (<= ?S3 ?F4) (>= ?S3 ?F4))))
(let (($x295307 (and ?P2 ?Y3 ?C3 $x267647 $x214905 $x403656 $x566874 (<= ?S3 ?Z3) (>= ?S3 ?Z3))))
(let (($x298787 (and ?E2 ?U3 ?O2 $x267647 $x214905 $x403656 $x566874 (<= ?S3 ?V3) (>= ?S3 ?V3))))
(let (($x165161 (not ?O3)))
(let (($x310412 (or $x165161 (and ?M2 ?P3 $x267647 $x214905 $x403656 $x566874 (<= ?S3 ?T3) (>= ?S3 ?T3)) $x298787 (and ?A3 ?W3 $x267647 $x214905 $x403656 $x566874 (<= ?S3 ?X3) (>= ?S3 ?X3)) $x295307 (and ?D3 ?A4 $x267647 $x214905 $x403656 $x566874 $x623034 $x420758) (and ?R2 ?B4 (not ?F3) $x267647 $x214905 $x403656 $x566874 $x272586 $x394794) (and ?G3 ?C4 $x267647 $x214905 $x403656 $x566874 (<= ?S3 ?D4) (>= ?S3 ?D4)) $x59250 (and ?J3 ?G4 $x267647 $x214905 $x403656 $x566874 (<= ?S3 ?H4) (>= ?S3 ?H4)) $x923190 (and ?L3 ?J4 $x267647 $x214905 $x403656 $x566874 $x623034 $x420758) (and ?X2 ?K4 (not ?N3) $x267647 $x214905 $x403656 $x566874 $x272586 $x394794) $x166420 (and ?S1 ?N4 ?Z1 $x267647 $x214905 $x403656 $x566874 $x623034 $x420758) $x277876)))
(let (($x104903 (not ?N4)))
(let (($x551085 (not ?L4)))
(let (($x871078 (not ?K4)))
(let (($x858230 (not ?J4)))
(let (($x626803 (not ?I4)))
(let (($x307879 (not ?G4)))
(let (($x149989 (not ?E4)))
(let (($x892704 (not ?C4)))
(let (($x152052 (not ?B4)))
(let (($x212891 (not ?A4)))
(let (($x875441 (not ?Y3)))
(let (($x451906 (not ?W3)))
(let (($x286792 (not ?U3)))
(let (($x197986 (not ?P3)))
(let (($x119736 (and ?O4 $x197986 $x286792 $x451906 $x875441 $x212891 $x152052 $x892704 $x149989 $x307879 $x626803 $x858230 $x871078 $x551085 $x104903)))
(let (($x462077 (not ?O4)))
(let (($x312944 (and ?N4 $x197986 $x286792 $x451906 $x875441 $x212891 $x152052 $x892704 $x149989 $x307879 $x626803 $x858230 $x871078 $x551085 $x462077)))
(let (($x152650 (and ?L4 $x197986 $x286792 $x451906 $x875441 $x212891 $x152052 $x892704 $x149989 $x307879 $x626803 $x858230 $x871078 $x104903 $x462077)))
(let (($x250822 (and ?K4 $x197986 $x286792 $x451906 $x875441 $x212891 $x152052 $x892704 $x149989 $x307879 $x626803 $x858230 $x551085 $x104903 $x462077)))
(let (($x446848 (and ?J4 $x197986 $x286792 $x451906 $x875441 $x212891 $x152052 $x892704 $x149989 $x307879 $x626803 $x871078 $x551085 $x104903 $x462077)))
(let (($x441254 (and ?I4 $x197986 $x286792 $x451906 $x875441 $x212891 $x152052 $x892704 $x149989 $x307879 $x858230 $x871078 $x551085 $x104903 $x462077)))
(let (($x78638 (and ?G4 $x197986 $x286792 $x451906 $x875441 $x212891 $x152052 $x892704 $x149989 $x626803 $x858230 $x871078 $x551085 $x104903 $x462077)))
(let (($x577754 (and ?E4 $x197986 $x286792 $x451906 $x875441 $x212891 $x152052 $x892704 $x307879 $x626803 $x858230 $x871078 $x551085 $x104903 $x462077)))
(let (($x368647 (and ?C4 $x197986 $x286792 $x451906 $x875441 $x212891 $x152052 $x149989 $x307879 $x626803 $x858230 $x871078 $x551085 $x104903 $x462077)))
(let (($x549643 (and ?B4 $x197986 $x286792 $x451906 $x875441 $x212891 $x892704 $x149989 $x307879 $x626803 $x858230 $x871078 $x551085 $x104903 $x462077)))
(let (($x381226 (and ?A4 $x197986 $x286792 $x451906 $x875441 $x152052 $x892704 $x149989 $x307879 $x626803 $x858230 $x871078 $x551085 $x104903 $x462077)))
(let (($x606854 (and ?Y3 $x197986 $x286792 $x451906 $x212891 $x152052 $x892704 $x149989 $x307879 $x626803 $x858230 $x871078 $x551085 $x104903 $x462077)))
(let (($x842432 (and ?W3 $x197986 $x286792 $x875441 $x212891 $x152052 $x892704 $x149989 $x307879 $x626803 $x858230 $x871078 $x551085 $x104903 $x462077)))
(let (($x151164 (and ?U3 $x197986 $x451906 $x875441 $x212891 $x152052 $x892704 $x149989 $x307879 $x626803 $x858230 $x871078 $x551085 $x104903 $x462077)))
(let (($x227626 (and ?P3 $x286792 $x451906 $x875441 $x212891 $x152052 $x892704 $x149989 $x307879 $x626803 $x858230 $x871078 $x551085 $x104903 $x462077)))
(let (($x884832 (or $x165161 $x227626 $x151164 $x842432 $x606854 $x381226 $x549643 $x368647 $x577754 $x78638 $x441254 $x446848 $x250822 $x152650 $x312944 $x119736)))
(let (($x811286 (or (not ?P4) (and ?O3 ?Q4 (not ?R4)))))
(let (($x518018 (or (not ?P4) ?Q4)))
(let (($x523329 (= ?O (= ?T4 0.0))))
(let (($x414526 (= ?V4 (ite ?U4 1.0 0.0))))
(let (($x647540 (= ?W (= ?W4 0.0))))
(let (($x518025 (= ?A1 (ite ?X4 1.0 0.0))))
(let (($x214027 (= ?E1 (= ?Y4 0.0))))
(let (($x19551 (= ?Z4 (= ?A5 0.0))))
(let (($x644574 (= ?B5 (not (<= ?R 0.0)))))
(let (($x538275 (= ?C5 (+ (~ 1.0) ?R))))
(let (($x327920 (= ?V1 (ite ?B5 ?C5 ?R))))
(let (($x81717 (= ?Z1 (= ?M1 0.0))))
(let (($x298873 (not (<= ?U1 1.0))))
(let (($x128216 (= ?D5 $x298873)))
(let (($x166180 (= ?F5 (and ?E5 ?D5))))
(let (($x168221 (= ?G5 (not ?F5))))
(let (($x95406 (= ?H5 $x298873)))
(let (($x553819 (= ?J5 (not ?I5))))
(let (($x512639 (= ?Z 0.0)))
(let (($x151147 (= ?K5 $x512639)))
(let (($x288993 (= ?L5 (not ?K5))))
(let (($x861600 (= ?M5 $x512639)))
(let (($x383862 (= ?N5 $x298873)))
(let (($x85266 (= ?P5 (not ?O5))))
(let (($x396872 (= ?F3 (= ?U1 0.0))))
(let (($x334042 (= ?N3 (= ?U1 0.0))))
(let (($x546912 (= ?Q5 $x512639)))
(let (($x306929 (= ?R5 $x512639)))
(let (($x115136 (= ?S5 $x512639)))
(let (($x269720 (= ?T5 $x512639)))
(let (($x849896 (= ?U5 (= ?S3 0.0))))
(let (($x868497 (= ?R4 (or ?U5 ?T5))))
(let (($x597559 (|cp-rel-bb1.i.i| ?A ?B ?C ?D ?E ?F ?G ?H ?I ?J ?K)))
(let (($x671977 (and $x597559 $x868497 $x849896 $x269720 (= ?H4 (ite ?S5 1.0 ?I)) $x115136 (= ?D4 (ite ?R5 1.0 ?I)) $x306929 (= ?X3 (ite ?Q5 1.0 ?I)) $x546912 $x334042 $x396872 (= ?Z3 (ite ?O5 1.0 ?I)) (= ?C3 (or ?E ?P5)) $x85266 (= ?O5 (and ?D ?N5)) $x383862 (= ?T3 (ite ?M5 1.0 ?I)) $x861600 (= ?M4 (ite ?K5 ?I 0.0)) (= ?Z2 (or ?C ?L5)) $x288993 $x151147 (= ?F4 (ite ?I5 1.0 ?I)) (= ?I3 (or ?E ?J5)) $x553819 (= ?I5 (and ?D ?H5)) $x95406 (= ?V3 (ite ?F5 1.0 ?I)) (= ?O2 (or ?E ?G5)) $x168221 $x166180 (= ?E5 (and ?R1 ?D)) $x128216 $x81717 $x327920 $x538275 $x644574 (= ?R1 (= ?I 0.0)) (= ?L1 (or ?Z4 ?A)) $x19551 $x214027 $x518025 (= ?X4 (= ?J 0.0)) $x647540 (= ?S (+ ?V4 ?K)) $x414526 (= ?U4 (not (<= 2.0 ?K))) $x523329 (not (= ?S4 true)) (= ?P4 true) $x518018 $x811286 $x884832 $x310412 $x362895 $x518853 $x156436 $x909377 $x280350 $x268213 $x316438 $x549177 $x236693 $x285406 $x512274 $x789186 $x100216 (or $x501976 (and ?I2 ?W2 (not ?C))) $x186580 (or $x422194 (and ?I2 ?U2 ?C)) $x850487 $x594114 $x540248 $x115687 $x422023 $x113697 $x148428 $x790834 $x842821 $x293443 $x38142 (or $x629912 (and ?A2 ?H2 (not ?C))) $x815768 (or $x589270 (and ?A2 ?F2 ?C)) $x279103 (or $x622753 (and ?X1 ?D2 (not ?B))) $x865456 (or $x757444 (and ?X1 ?B2 ?B)) $x30142 $x478352 $x102567 $x442942 $x220115 $x796804 $x462554 $x373748 $x919237 (or $x229036 (and ?F1 ?I1 (not ?F))) $x571595 $x212497 $x393068 $x864970 $x452504 $x477985 $x27918 $x573070 $x626609 $x590032 $x487873 $x129787 (= ?S4 (= ?G 0.0)))))
(=> $x671977 |cp-rel-bb2.i.i150.i.i|))))))))))))))))))))))))))))))))))))))))))))))))))))))))))))))))))))))))))))))))))))))))))))))))))))))))))))))))))))))))))))))))))))))))))))))
)
(assert (not cp-rel-bb2.i.i150.i.i))
(check-sat)
